Version identifier: 22.1.0.0 | 2022-03-09 | 1a383f8ce
CPXPARAM_Threads                                 1
CPXPARAM_MIP_Strategy_VariableSelect             3
CPXPARAM_TimeLimit                               599.99797064799998
Found incumbent of value 0.000000 after 0.00 sec. (0.30 ticks)

Root node processing (before b&c):
  Real time             =    0.00 sec. (0.34 ticks)
Sequential b&c:
  Real time             =    0.00 sec. (0.00 ticks)
                          ------------
Total (root+branch&cut) =    0.00 sec. (0.34 ticks)
Version identifier: 22.1.0.0 | 2022-03-09 | 1a383f8ce
CPXPARAM_Threads                                 1
CPXPARAM_MIP_Strategy_VariableSelect             3
CPXPARAM_TimeLimit                               599.98257281799999
Tried aggregator 1 time.
MIP Presolve eliminated 12 rows and 0 columns.
MIP Presolve modified 1 coefficients.
Reduced MIP has 767 rows, 3624 columns, and 35934 nonzeros.
Reduced MIP has 3624 binaries, 0 generals, 0 SOSs, and 0 indicators.
Presolve time = 0.02 sec. (18.17 ticks)
Probing time = 0.00 sec. (4.69 ticks)
Tried aggregator 1 time.
Detecting symmetries...
Reduced MIP has 767 rows, 3624 columns, and 35934 nonzeros.
Reduced MIP has 3624 binaries, 0 generals, 0 SOSs, and 0 indicators.
Presolve time = 0.03 sec. (22.28 ticks)
Probing time = 0.00 sec. (4.69 ticks)
Clique table members: 449.
MIP emphasis: balance optimality and feasibility.
MIP search method: dynamic search.
Parallel mode: none, using 1 thread.
Root relaxation solution time = 0.07 sec. (68.91 ticks)

        Nodes                                         Cuts/
   Node  Left     Objective  IInf  Best Integer    Best Bound    ItCnt     Gap

      0     0        0.0000   428                      0.0000      835         
*     0+    0                            0.0000        0.0000             0.00%
      0     0        cutoff              0.0000        0.0000      835    0.00%
Elapsed time = 0.41 sec. (342.93 ticks, tree = 0.01 MB, solutions = 1)

Root node processing (before b&c):
  Real time             =    0.41 sec. (343.04 ticks)
Sequential b&c:
  Real time             =    0.00 sec. (0.00 ticks)
                          ------------
Total (root+branch&cut) =    0.41 sec. (343.04 ticks)
Version identifier: 22.1.0.0 | 2022-03-09 | 1a383f8ce
CPXPARAM_Threads                                 1
CPXPARAM_MIP_Strategy_VariableSelect             3
CPXPARAM_TimeLimit                               599.54899884300005
Tried aggregator 1 time.
MIP Presolve eliminated 12 rows and 0 columns.
MIP Presolve modified 1 coefficients.
Reduced MIP has 892 rows, 4224 columns, and 41984 nonzeros.
Reduced MIP has 4224 binaries, 0 generals, 0 SOSs, and 0 indicators.
Presolve time = 0.03 sec. (21.11 ticks)
Probing time = 0.01 sec. (5.00 ticks)
Tried aggregator 1 time.
Detecting symmetries...
Reduced MIP has 892 rows, 4224 columns, and 41984 nonzeros.
Reduced MIP has 4224 binaries, 0 generals, 0 SOSs, and 0 indicators.
Presolve time = 0.03 sec. (25.99 ticks)
Probing time = 0.00 sec. (5.00 ticks)
Clique table members: 524.
MIP emphasis: balance optimality and feasibility.
MIP search method: dynamic search.
Parallel mode: none, using 1 thread.
Root relaxation solution time = 0.13 sec. (137.42 ticks)

        Nodes                                         Cuts/
   Node  Left     Objective  IInf  Best Integer    Best Bound    ItCnt     Gap

      0     0        0.0000   504                      0.0000     1228         
*     0+    0                            0.0000        0.0000             0.00%
      0     0        cutoff              0.0000        0.0000     1228    0.00%
Elapsed time = 0.63 sec. (551.89 ticks, tree = 0.01 MB, solutions = 1)

Root node processing (before b&c):
  Real time             =    0.63 sec. (552.02 ticks)
Sequential b&c:
  Real time             =    0.00 sec. (0.00 ticks)
                          ------------
Total (root+branch&cut) =    0.63 sec. (552.02 ticks)
Version identifier: 22.1.0.0 | 2022-03-09 | 1a383f8ce
CPXPARAM_Threads                                 1
CPXPARAM_MIP_Strategy_VariableSelect             3
CPXPARAM_TimeLimit                               598.89530238600003
Tried aggregator 1 time.
MIP Presolve eliminated 12 rows and 0 columns.
MIP Presolve modified 1 coefficients.
Reduced MIP has 952 rows, 4512 columns, and 44888 nonzeros.
Reduced MIP has 4512 binaries, 0 generals, 0 SOSs, and 0 indicators.
Presolve time = 0.05 sec. (22.52 ticks)
Probing time = 0.01 sec. (5.19 ticks)
Tried aggregator 1 time.
Detecting symmetries...
Reduced MIP has 952 rows, 4512 columns, and 44888 nonzeros.
Reduced MIP has 4512 binaries, 0 generals, 0 SOSs, and 0 indicators.
Presolve time = 0.04 sec. (27.76 ticks)
Probing time = 0.01 sec. (5.19 ticks)
Clique table members: 560.
MIP emphasis: balance optimality and feasibility.
MIP search method: dynamic search.
Parallel mode: none, using 1 thread.
Root relaxation solution time = 0.22 sec. (197.59 ticks)

        Nodes                                         Cuts/
   Node  Left     Objective  IInf  Best Integer    Best Bound    ItCnt     Gap

      0     0        0.0000   552                      0.0000     1483         
*     0+    0                            0.0000        0.0000             0.00%
      0     0        cutoff              0.0000        0.0000     1483    0.00%
Elapsed time = 1.24 sec. (1089.12 ticks, tree = 0.01 MB, solutions = 1)

Root node processing (before b&c):
  Real time             =    1.24 sec. (1089.26 ticks)
Sequential b&c:
  Real time             =    0.00 sec. (0.00 ticks)
                          ------------
Total (root+branch&cut) =    1.24 sec. (1089.26 ticks)
Version identifier: 22.1.0.0 | 2022-03-09 | 1a383f8ce
CPXPARAM_Threads                                 1
CPXPARAM_MIP_Strategy_VariableSelect             3
CPXPARAM_TimeLimit                               597.61521350600003
Tried aggregator 1 time.
MIP Presolve eliminated 12 rows and 0 columns.
MIP Presolve modified 1 coefficients.
Reduced MIP has 982 rows, 4656 columns, and 46340 nonzeros.
Reduced MIP has 4656 binaries, 0 generals, 0 SOSs, and 0 indicators.
Presolve time = 0.03 sec. (23.23 ticks)
Probing time = 0.01 sec. (5.25 ticks)
Tried aggregator 1 time.
Detecting symmetries...
Reduced MIP has 982 rows, 4656 columns, and 46340 nonzeros.
Reduced MIP has 4656 binaries, 0 generals, 0 SOSs, and 0 indicators.
Presolve time = 0.03 sec. (28.66 ticks)
Probing time = 0.01 sec. (5.25 ticks)
Clique table members: 578.
MIP emphasis: balance optimality and feasibility.
MIP search method: dynamic search.
Parallel mode: none, using 1 thread.
Root relaxation solution time = 0.22 sec. (228.75 ticks)

        Nodes                                         Cuts/
   Node  Left     Objective  IInf  Best Integer    Best Bound    ItCnt     Gap

      0     0        0.0000   587                      0.0000     1682         
*     0+    0                            0.0000        0.0000             0.00%
      0     0        cutoff              0.0000        0.0000     1682    0.00%
Elapsed time = 1.35 sec. (1403.52 ticks, tree = 0.01 MB, solutions = 1)

Root node processing (before b&c):
  Real time             =    1.35 sec. (1403.65 ticks)
Sequential b&c:
  Real time             =    0.00 sec. (0.00 ticks)
                          ------------
Total (root+branch&cut) =    1.35 sec. (1403.65 ticks)
Version identifier: 22.1.0.0 | 2022-03-09 | 1a383f8ce
CPXPARAM_Threads                                 1
CPXPARAM_MIP_Strategy_VariableSelect             3
CPXPARAM_TimeLimit                               596.24009956099997
Tried aggregator 1 time.
MIP Presolve eliminated 12 rows and 0 columns.
Reduced MIP has 997 rows, 4728 columns, and 47066 nonzeros.
Reduced MIP has 4728 binaries, 0 generals, 0 SOSs, and 0 indicators.
Presolve time = 0.03 sec. (23.53 ticks)
Probing time = 0.01 sec. (5.31 ticks)
Tried aggregator 1 time.
Detecting symmetries...
Reduced MIP has 997 rows, 4728 columns, and 47066 nonzeros.
Reduced MIP has 4728 binaries, 0 generals, 0 SOSs, and 0 indicators.
Presolve time = 0.03 sec. (29.09 ticks)
Probing time = 0.01 sec. (5.31 ticks)
Clique table members: 587.
MIP emphasis: balance optimality and feasibility.
MIP search method: dynamic search.
Parallel mode: none, using 1 thread.
Root relaxation solution time = 0.23 sec. (240.93 ticks)

        Nodes                                         Cuts/
   Node  Left     Objective  IInf  Best Integer    Best Bound    ItCnt     Gap

      0     0        0.0000   626                      0.0000     1742         
*     0+    0                            0.0000        0.0000             0.00%
      0     0        cutoff              0.0000        0.0000     1742    0.00%
Elapsed time = 1.66 sec. (1811.13 ticks, tree = 0.01 MB, solutions = 1)

Root node processing (before b&c):
  Real time             =    1.66 sec. (1811.28 ticks)
Sequential b&c:
  Real time             =    0.00 sec. (0.00 ticks)
                          ------------
Total (root+branch&cut) =    1.66 sec. (1811.28 ticks)
Version identifier: 22.1.0.0 | 2022-03-09 | 1a383f8ce
CPXPARAM_Threads                                 1
CPXPARAM_MIP_Strategy_VariableSelect             3
CPXPARAM_TimeLimit                               594.55678312800001
Tried aggregator 1 time.
MIP Presolve eliminated 12 rows and 0 columns.
Reduced MIP has 1007 rows, 4776 columns, and 47550 nonzeros.
Reduced MIP has 4776 binaries, 0 generals, 0 SOSs, and 0 indicators.
Presolve time = 0.03 sec. (23.76 ticks)
Probing time = 0.01 sec. (5.30 ticks)
Tried aggregator 1 time.
Detecting symmetries...
Reduced MIP has 1007 rows, 4776 columns, and 47550 nonzeros.
Reduced MIP has 4776 binaries, 0 generals, 0 SOSs, and 0 indicators.
Presolve time = 0.03 sec. (29.38 ticks)
Probing time = 0.01 sec. (5.30 ticks)
Clique table members: 593.
MIP emphasis: balance optimality and feasibility.
MIP search method: dynamic search.
Parallel mode: none, using 1 thread.
Root relaxation solution time = 0.27 sec. (293.10 ticks)

        Nodes                                         Cuts/
   Node  Left     Objective  IInf  Best Integer    Best Bound    ItCnt     Gap

      0     0        0.0000   615                      0.0000     2027         
*     0+    0                            0.0000        0.0000             0.00%
      0     0        cutoff              0.0000        0.0000     2027    0.00%
Elapsed time = 2.01 sec. (2125.51 ticks, tree = 0.01 MB, solutions = 1)

Root node processing (before b&c):
  Real time             =    2.01 sec. (2125.65 ticks)
Sequential b&c:
  Real time             =    0.00 sec. (0.00 ticks)
                          ------------
Total (root+branch&cut) =    2.01 sec. (2125.65 ticks)
Version identifier: 22.1.0.0 | 2022-03-09 | 1a383f8ce
CPXPARAM_Threads                                 1
CPXPARAM_MIP_Strategy_VariableSelect             3
CPXPARAM_TimeLimit                               592.51640535800004
Tried aggregator 1 time.
MIP Presolve eliminated 12 rows and 0 columns.
Reduced MIP has 1012 rows, 4800 columns, and 47792 nonzeros.
Reduced MIP has 4800 binaries, 0 generals, 0 SOSs, and 0 indicators.
Presolve time = 0.03 sec. (23.88 ticks)
Probing time = 0.01 sec. (5.32 ticks)
Tried aggregator 1 time.
Detecting symmetries...
Reduced MIP has 1012 rows, 4800 columns, and 47792 nonzeros.
Reduced MIP has 4800 binaries, 0 generals, 0 SOSs, and 0 indicators.
Presolve time = 0.03 sec. (29.55 ticks)
Probing time = 0.01 sec. (5.32 ticks)
Clique table members: 596.
MIP emphasis: balance optimality and feasibility.
MIP search method: dynamic search.
Parallel mode: none, using 1 thread.
Root relaxation solution time = 0.27 sec. (295.24 ticks)

        Nodes                                         Cuts/
   Node  Left     Objective  IInf  Best Integer    Best Bound    ItCnt     Gap

      0     0        0.0000   657                      0.0000     1909         
*     0+    0                            0.0000        0.0000             0.00%
      0     0        cutoff              0.0000        0.0000     1909    0.00%
Elapsed time = 1.87 sec. (1995.85 ticks, tree = 0.01 MB, solutions = 1)

Root node processing (before b&c):
  Real time             =    1.87 sec. (1995.99 ticks)
Sequential b&c:
  Real time             =    0.00 sec. (0.00 ticks)
                          ------------
Total (root+branch&cut) =    1.87 sec. (1995.99 ticks)
Primal:	200
Dual:	200
Status:	Optimal
Time:	9.37463
Sequence:
	23
	6
	15
	10
	6
	14
	22
	6
	0
	8
	16
	8
	6
	3
	8
	6
	2
	19
	7
	16
	6
	8
	16
	18
	8
	16
	8
	14
	11
	14
	8
	20
	14
	9
	10
	14
	8
	10
	1
	14
	10
	8
	14
	10
	7
	14
	14
	10
	8
	14
	21
	8
	14
	10
	14
	8
	12
	14
	18
	17
	4
	6
	6
	5
	6
	6
	16
	8
	9
	14
	20
	6
	15
	10
	6
	0
	22
	6
	15
	17
	21
	15
	17
	22
	14
	7
	22
	14
	6
	4
	17
	6
	5
	14
	17
	20
	15
	8
	16
	6
	17
	5
	14
	17
	20
	14
	7
	22
	15
	6
	10
	0
	8
	12
	14
	6
	11
	14
	19
	22
	14
	18
	17
	2
	19
	17
	16
	7
	8
	4
	6
	17
	3
	17
	6
	4
	17
	19
	3
	6
	19
	16
	17
	9
	16
	17
	14
	12
	17
	14
	17
	17
	16
	9
	19
	2
	6
	6
	5
	17
	6
	4
	6
	17
	4
	18
	8
	16
	6
	8
	16
	18
	8
	2
	19
	17
	14
	12
	6
	1
	20
	17
	15
	10
	9
	14
	10
	6
	14
	22
	7
	15
	20
	17
	15
	20
	8
	14
	6
	13
